# Solution for model GasLib-40
# Objective value = 1.3150517904883733e+01
loadshed[innode_1] 0
loadshed[innode_2] 0
loadshed[innode_3] 0
loadshed[innode_4] 0
loadshed[innode_5] 0
loadshed[innode_6] 0
loadshed[innode_7] 0
loadshed[innode_8] 0
loadshed[source_1] -2.0763487380468404e-01
loadshed[source_2] -3.7986104966825529e-02
loadshed[source_3] 3.2880457544625674e-01
loadshed[sink_1] 0
loadshed[sink_2] 0
loadshed[sink_3] 0
loadshed[sink_4] 0
loadshed[sink_5] 0
loadshed[sink_6] 0
loadshed[sink_7] 0
loadshed[sink_8] 0
loadshed[sink_9] 0
loadshed[sink_10] 0
loadshed[sink_11] 0
loadshed[sink_12] 8.0410810119034282e-01
loadshed[sink_13] 0
loadshed[sink_14] 0
loadshed[sink_15] 0
loadshed[sink_16] 0
loadshed[sink_17] 0
loadshed[sink_18] 0
loadshed[sink_19] 0
loadshed[sink_20] 0
loadshed[sink_21] 0
loadshed[sink_22] 0
loadshed[sink_23] 0
loadshed[sink_24] 0
loadshed[sink_25] 0
loadshed[sink_26] 0
loadshed[sink_27] 0
loadshed[sink_28] 0
loadshed[sink_29] 0
flow[source_1,sink_3] 1.9091533265391411e+02
flow[innode_1,sink_16] 1.6354166666666970e+01
flow[innode_6,sink_13] 8.3696955558053663e+00
flow[sink_13,sink_14] -7.9844711108613016e+00
flow[sink_14,sink_10] -2.4338637777527971e+01
flow[sink_25,sink_26] 1.8244241315061498e+02
flow[sink_26,sink_9] 1.5039114876178388e+02
flow[sink_9,sink_18] 1.3403698209511722e+02
flow[sink_26,sink_4] 1.5697097722165097e+01
flow[sink_4,sink_20] 0
flow[sink_18,sink_6] 1.1768281542845057e+02
flow[sink_25,innode_8] -1.5820699932057772e+02
flow[sink_6,sink_7] 6.8620315428449885e+01
flow[sink_6,sink_22] 3.2708333333333641e+01
flow[sink_7,sink_24] 3.5911982095116272e+01
flow[sink_22,sink_1] 1.6354166666666970e+01
flow[sink_24,sink_21] 19.5578154284496
flow[sink_21,sink_12] 3.2036487617829348e+00
flow[sink_7,sink_5] 1.6354166666667368e+01
flow[sink_5,sink_17] 0
flow[sink_17,sink_4] 6.5706894450158160e-01
flow[sink_17,sink_8] -1.7011235611168249e+01
flow[sink_3,sink_23] 16.3541666666697
flow[sink_8,sink_20] -3.3365402277834917e+01
flow[sink_25,sink_20] 4.9719568944501646e+01
flow[sink_25,sink_15] -9.8678844997011126e+01
flow[sink_15,sink_29] -6.3975876626459559e+01
flow[sink_29,sink_28] 1.6354166666667879e+01
flow[sink_29,sink_2] 6.7411301703884931e+01
flow[sink_2,sink_15] 5.1057135037218259e+01
flow[sink_29,innode_7] -1.6409551166367905e+02
flow[innode_4,sink_19] 8.9755304444195048e+01
flow[sink_19,innode_3] 35.819445409399
flow[innode_4,innode_5] 1.6354166666679703e+01
flow[sink_27,innode_5] -1.6354166666679703e+01
flow[sink_27,sink_19] 0
flow[sink_10,sink_11] 3.2708333333333641e+01
flow[sink_10,innode_2] -3.7581692368129218e+01
flow[sink_10,innode_3] -35.819445409399
flow[innode_6,sink_25] -8.3696955558053663e+00
flow[sink_11,innode_1] 1.6354166666666970e+01
flow[sink_19,innode_2] 3.7581692368129218e+01
flow[source_3,innode_4] 1.0610947111087475e+02
flow[source_2,innode_7] 1.6409551166367905e+02
flow[sink_3,innode_8] 1.5820699932057772e+02
pressure[innode_1] 7.5238984952414356e+01
pressure[innode_2] 7.7377033919146470e+01
pressure[innode_3] 7.7297715813399563e+01
pressure[innode_4] 81.01325
pressure[innode_5] 8.1002000741808786e+01
pressure[innode_6] 7.4271354709855345e+01
pressure[innode_7] 81.01325
pressure[innode_8] 8.0375092975238545e+01
pressure[source_1] 81.01325
pressure[source_2] 81.01325
pressure[source_3] 81.01325
pressure[sink_1] 4.2327327610652631e+01
pressure[sink_2] 7.4916733555997226e+01
pressure[sink_3] 8.0375092975238545e+01
pressure[sink_4] 5.9426273063846523e+01
pressure[sink_5] 3.6684841829388709e+01
pressure[sink_6] 44.42840522104
pressure[sink_7] 4.3486411856283425e+01
pressure[sink_8] 6.0093262186000253e+01
pressure[sink_9] 5.2420744291882066e+01
pressure[sink_10] 75.3906862600179
pressure[sink_11] 7.5238984952414356e+01
pressure[sink_12] 1.01325
pressure[sink_13] 7.4225213976962266e+01
pressure[sink_14] 74.2395028681417
pressure[sink_15] 7.4750043262912016e+01
pressure[sink_16] 7.4217335117596676e+01
pressure[sink_17] 59.4513840722875
pressure[sink_18] 4.7570886780767964e+01
pressure[sink_19] 7.7377033919146470e+01
pressure[sink_20] 62.4183614980697
pressure[sink_21] 2.1532835658220737e+00
pressure[sink_22] 4.3391096753007638e+01
pressure[sink_23] 8.0210374963578758e+01
pressure[sink_24] 2.3698682003144591e+00
pressure[sink_25] 7.4271354709855345e+01
pressure[sink_26] 6.1422042694145105e+01
pressure[sink_27] 8.0866291377726043e+01
pressure[sink_28] 76.3290556328078
pressure[sink_29] 7.6624337906424969e+01
interdiction[source_1,sink_3] 0
interdiction[innode_1,sink_16] 0
interdiction[innode_6,sink_13] 0
interdiction[sink_13,sink_14] 0
interdiction[sink_14,sink_10] 0
interdiction[sink_25,sink_26] 0
interdiction[sink_26,sink_9] 0
interdiction[sink_9,sink_18] 0
interdiction[sink_26,sink_4] 0
interdiction[sink_4,sink_20] 1
interdiction[sink_18,sink_6] 0
interdiction[sink_25,innode_8] 0
interdiction[sink_6,sink_7] 0
interdiction[sink_6,sink_22] 0
interdiction[sink_7,sink_24] 0
interdiction[sink_22,sink_1] 0
interdiction[sink_24,sink_21] 0
interdiction[sink_21,sink_12] 0
interdiction[sink_7,sink_5] 0
interdiction[sink_5,sink_17] 1
interdiction[sink_17,sink_4] 0
interdiction[sink_17,sink_8] 0
interdiction[sink_3,sink_23] 0
interdiction[sink_8,sink_20] 0
interdiction[sink_25,sink_20] 0
interdiction[sink_25,sink_15] 0
interdiction[sink_15,sink_29] 0
interdiction[sink_29,sink_28] 0
interdiction[sink_29,sink_2] 0
interdiction[sink_2,sink_15] 0
interdiction[sink_29,innode_7] 0
interdiction[innode_4,sink_19] 0
interdiction[sink_19,innode_3] 0
interdiction[innode_4,innode_5] 0
interdiction[sink_27,innode_5] 0
interdiction[sink_27,sink_19] 1
interdiction[sink_10,sink_11] 0
interdiction[sink_10,innode_2] 0
interdiction[sink_10,innode_3] 0
interdiction[innode_6,sink_25] 0
interdiction[sink_11,innode_1] 0
interdiction[sink_19,innode_2] 0
interdiction[source_3,innode_4] 0
interdiction[source_2,innode_7] 0
interdiction[sink_3,innode_8] 0
WCcheckFlow[source_1,sink_3] 39
WCcheckFlow[innode_1,sink_16] 1
WCcheckFlow[innode_6,sink_13] 13
WCcheckFlow[sink_13,sink_14] 12
WCcheckFlow[sink_14,sink_10] 11
WCcheckFlow[sink_25,sink_26] 15
WCcheckFlow[sink_26,sink_9] 10
WCcheckFlow[sink_9,sink_18] 9
WCcheckFlow[sink_26,sink_4] 4
WCcheckFlow[sink_4,sink_20] 0
WCcheckFlow[sink_18,sink_6] 8
WCcheckFlow[sink_25,innode_8] -36
WCcheckFlow[sink_6,sink_7] 5
WCcheckFlow[sink_6,sink_22] 2
WCcheckFlow[sink_7,sink_24] 3
WCcheckFlow[sink_22,sink_1] 1
WCcheckFlow[sink_24,sink_21] 2
WCcheckFlow[sink_21,sink_12] 1
WCcheckFlow[sink_7,sink_5] 1
WCcheckFlow[sink_5,sink_17] 0
WCcheckFlow[sink_17,sink_4] -3
WCcheckFlow[sink_17,sink_8] 2
WCcheckFlow[sink_3,sink_23] 1
WCcheckFlow[sink_8,sink_20] 1
WCcheckFlow[sink_25,sink_20] 0
WCcheckFlow[sink_25,sink_15] 6
WCcheckFlow[sink_15,sink_29] 5
WCcheckFlow[sink_29,sink_28] 1
WCcheckFlow[sink_29,sink_2] 1
WCcheckFlow[sink_2,sink_15] 0
WCcheckFlow[sink_29,innode_7] 2
WCcheckFlow[innode_4,sink_19] -4
WCcheckFlow[sink_19,innode_3] -5
WCcheckFlow[innode_4,innode_5] 2
WCcheckFlow[sink_27,innode_5] -1
WCcheckFlow[sink_27,sink_19] 0
WCcheckFlow[sink_10,sink_11] 3
WCcheckFlow[sink_10,innode_2] 1
WCcheckFlow[sink_10,innode_3] 6
WCcheckFlow[innode_6,sink_25] -14
WCcheckFlow[sink_11,innode_1] 2
WCcheckFlow[sink_19,innode_2] 0
WCcheckFlow[source_3,innode_4] -1
WCcheckFlow[source_2,innode_7] -1
WCcheckFlow[sink_3,innode_8] 37
